23 53
89 38
87 72
86 30
32 92
80 14
13 82
8 94
55 34
77 34
41 58
90 117
72 71
100 53
89 63
93 47
47 65
58 100
69 44
41 60
71 100
2 72
59 84
44 66
47 111
7 98
20 63
13 128
91 62
23 153
36 121
26 75
93 143
55 126
58 126
50 104
72 164
14 75
37 101
47 106
96 175
5 119
53 181
86 106
23 182
24 146
84 188
43 125
41 127
43 181
38 190
78 162
66 204
51 203
47 148
64 176
99 185
39 160
80 176
8 204
22 230
54 244
68 236
65 190
62 203
100 217
50 249
55 181
26 173
20 231
97 183
93 239
47 185
31 226
75 233
89 244
33 181
20 258
48 231
7 294
83 283
21 202
69 224
62 293
53 299
47 264
23 239
78 285
12 259
5 258
83 264
18 283
25 256
44 265
79 285
39 232
14 247
67 245
40 277
83 298
